(set-info :smt-lib-version 2.6)
(set-logic UFLIA)
(set-info :source |
Generated by: Geoff Sutcliffe
Generated on: 2026-03-11
Generator: TPTPWorld
Application: Benchmarking automated theorem provers
Time limit: 120.0

These benchmarks are translations from the TPTP Library (Thousands of
Problems for Theorem Provers), see http://www.cs.miami.edu/~tptp/

The TPTP is maintained by Geoff Sutcliffe, and he contributed this
selection of benchmarks to SMT-LIB.  They were exported from the
v9.2.1 realease of TPTP.
|)
(set-info :category "industrial")
(set-info :status unknown)
; SZS status Success
(declare-sort $$unsorted 0)
(declare-fun tptp.f (Int) Int)
(declare-fun tptp.g (Int) Int)
(assert (not (=> (and (forall ((X Int)) (let ((_let_1 (- X))) (let ((_let_2 (tptp.f X))) (and (<= X _let_2) (<= _let_1 _let_2) (or (<= _let_2 X) (<= _let_2 _let_1)))))) (forall ((X Int)) (let ((_let_1 (tptp.g X))) (and (<= 0 _let_1) (or (= _let_1 X) (= _let_1 (- X))))))) (forall ((X Int)) (= (tptp.f X) (tptp.g X))))))
(check-sat)
(exit)
